c This is a CNF SAT formula in the DIMACS CNF format,
c produced with the bc2cnf translator by Tommi Junttila;
c see http://users.ics.aalto.fi/tjunttil/circuits/index.html
c CO_32 <-> 33
c s31 <-> 37
c B32 <-> 38
c A32 <-> 39
c CO_31 <-> 40
c s30 <-> 44
c B31 <-> 45
c A31 <-> 46
c CO_30 <-> 47
c s29 <-> 51
c B30 <-> 52
c A30 <-> 53
c CO_29 <-> 54
c s28 <-> 58
c B29 <-> 59
c A29 <-> 60
c CO_28 <-> 61
c s27 <-> 65
c B28 <-> 66
c A28 <-> 67
c CO_27 <-> 68
c s26 <-> 72
c B27 <-> 73
c A27 <-> 74
c CO_26 <-> 75
c s25 <-> 79
c B26 <-> 80
c A26 <-> 81
c CO_25 <-> 82
c s24 <-> 86
c B25 <-> 87
c A25 <-> 88
c CO_24 <-> 89
c s23 <-> 93
c B24 <-> 94
c A24 <-> 95
c CO_23 <-> 96
c s22 <-> 100
c B23 <-> 101
c A23 <-> 102
c CO_22 <-> 103
c s21 <-> 107
c B22 <-> 108
c A22 <-> 109
c CO_21 <-> 110
c s20 <-> 114
c B21 <-> 115
c A21 <-> 116
c CO_20 <-> 117
c s19 <-> 121
c B20 <-> 122
c A20 <-> 123
c CO_19 <-> 124
c s18 <-> 128
c B19 <-> 129
c A19 <-> 130
c CO_18 <-> 131
c s17 <-> 135
c B18 <-> 136
c A18 <-> 137
c CO_17 <-> 138
c s16 <-> 142
c B17 <-> 143
c A17 <-> 144
c CO_16 <-> 145
c s15 <-> 149
c B16 <-> 150
c A16 <-> 151
c CO_15 <-> 152
c s14 <-> 156
c B15 <-> 157
c A15 <-> 158
c CO_14 <-> 159
c s13 <-> 163
c B14 <-> 164
c A14 <-> 165
c CO_13 <-> 166
c s12 <-> 170
c B13 <-> 171
c A13 <-> 172
c CO_12 <-> 173
c s11 <-> 177
c B12 <-> 178
c A12 <-> 179
c CO_11 <-> 180
c s10 <-> 184
c B11 <-> 185
c A11 <-> 186
c CO_10 <-> 187
c s9 <-> 191
c B10 <-> 192
c A10 <-> 193
c CO_9 <-> 194
c s8 <-> 198
c B9 <-> 199
c A9 <-> 200
c CO_8 <-> 201
c s7 <-> 205
c B8 <-> 206
c A8 <-> 207
c CO_7 <-> 208
c s6 <-> 212
c B7 <-> 213
c A7 <-> 214
c CO_6 <-> 215
c s5 <-> 219
c B6 <-> 220
c A6 <-> 221
c CO_5 <-> 222
c s4 <-> 226
c B5 <-> 227
c A5 <-> 228
c CO_4 <-> 229
c s3 <-> 233
c B4 <-> 234
c A4 <-> 235
c CO_3 <-> 236
c s2 <-> 240
c B3 <-> 241
c A3 <-> 242
c CO_2 <-> 243
c s1 <-> 247
c B2 <-> 248
c A2 <-> 249
c CO_1 <-> 250
c s0 <-> 254
c B1 <-> 255
c A1 <-> 256
c ALUFN <-> 257
p cnf 257 672
1 39 -38 0
1 -39 38 0
-1 39 38 0
-1 -39 -38 0
2 46 -45 0
2 -46 45 0
-2 46 45 0
-2 -46 -45 0
3 53 -52 0
3 -53 52 0
-3 53 52 0
-3 -53 -52 0
4 60 -59 0
4 -60 59 0
-4 60 59 0
-4 -60 -59 0
5 67 -66 0
5 -67 66 0
-5 67 66 0
-5 -67 -66 0
6 74 -73 0
6 -74 73 0
-6 74 73 0
-6 -74 -73 0
7 81 -80 0
7 -81 80 0
-7 81 80 0
-7 -81 -80 0
8 88 -87 0
8 -88 87 0
-8 88 87 0
-8 -88 -87 0
9 95 -94 0
9 -95 94 0
-9 95 94 0
-9 -95 -94 0
10 102 -101 0
10 -102 101 0
-10 102 101 0
-10 -102 -101 0
11 109 -108 0
11 -109 108 0
-11 109 108 0
-11 -109 -108 0
12 116 -115 0
12 -116 115 0
-12 116 115 0
-12 -116 -115 0
13 123 -122 0
13 -123 122 0
-13 123 122 0
-13 -123 -122 0
14 130 -129 0
14 -130 129 0
-14 130 129 0
-14 -130 -129 0
15 137 -136 0
15 -137 136 0
-15 137 136 0
-15 -137 -136 0
16 144 -143 0
16 -144 143 0
-16 144 143 0
-16 -144 -143 0
17 151 -150 0
17 -151 150 0
-17 151 150 0
-17 -151 -150 0
18 158 -157 0
18 -158 157 0
-18 158 157 0
-18 -158 -157 0
19 165 -164 0
19 -165 164 0
-19 165 164 0
-19 -165 -164 0
20 172 -171 0
20 -172 171 0
-20 172 171 0
-20 -172 -171 0
21 179 -178 0
21 -179 178 0
-21 179 178 0
-21 -179 -178 0
22 186 -185 0
22 -186 185 0
-22 186 185 0
-22 -186 -185 0
23 193 -192 0
23 -193 192 0
-23 193 192 0
-23 -193 -192 0
24 200 -199 0
24 -200 199 0
-24 200 199 0
-24 -200 -199 0
25 207 -206 0
25 -207 206 0
-25 207 206 0
-25 -207 -206 0
26 214 -213 0
26 -214 213 0
-26 214 213 0
-26 -214 -213 0
27 221 -220 0
27 -221 220 0
-27 221 220 0
-27 -221 -220 0
28 228 -227 0
28 -228 227 0
-28 228 227 0
-28 -228 -227 0
29 235 -234 0
29 -235 234 0
-29 235 234 0
-29 -235 -234 0
30 242 -241 0
30 -242 241 0
-30 242 241 0
-30 -242 -241 0
31 249 -248 0
31 -249 248 0
-31 249 248 0
-31 -249 -248 0
32 256 -255 0
32 -256 255 0
-32 256 255 0
-32 -256 -255 0
33 -34 0
33 -35 0
33 -36 0
-33 36 35 34 0
-34 39 0
-34 40 0
34 -40 -39 0
-35 38 0
-35 40 0
35 -40 -38 0
-36 38 0
-36 39 0
36 -39 -38 0
37 40 -1 0
37 -40 1 0
-37 40 1 0
-37 -40 -1 0
40 -41 0
40 -42 0
40 -43 0
-40 43 42 41 0
-41 46 0
-41 47 0
41 -47 -46 0
-42 45 0
-42 47 0
42 -47 -45 0
-43 45 0
-43 46 0
43 -46 -45 0
44 47 -2 0
44 -47 2 0
-44 47 2 0
-44 -47 -2 0
47 -48 0
47 -49 0
47 -50 0
-47 50 49 48 0
-48 53 0
-48 54 0
48 -54 -53 0
-49 52 0
-49 54 0
49 -54 -52 0
-50 52 0
-50 53 0
50 -53 -52 0
51 54 -3 0
51 -54 3 0
-51 54 3 0
-51 -54 -3 0
54 -55 0
54 -56 0
54 -57 0
-54 57 56 55 0
-55 60 0
-55 61 0
55 -61 -60 0
-56 59 0
-56 61 0
56 -61 -59 0
-57 59 0
-57 60 0
57 -60 -59 0
58 61 -4 0
58 -61 4 0
-58 61 4 0
-58 -61 -4 0
61 -62 0
61 -63 0
61 -64 0
-61 64 63 62 0
-62 67 0
-62 68 0
62 -68 -67 0
-63 66 0
-63 68 0
63 -68 -66 0
-64 66 0
-64 67 0
64 -67 -66 0
65 68 -5 0
65 -68 5 0
-65 68 5 0
-65 -68 -5 0
68 -69 0
68 -70 0
68 -71 0
-68 71 70 69 0
-69 74 0
-69 75 0
69 -75 -74 0
-70 73 0
-70 75 0
70 -75 -73 0
-71 73 0
-71 74 0
71 -74 -73 0
72 75 -6 0
72 -75 6 0
-72 75 6 0
-72 -75 -6 0
75 -76 0
75 -77 0
75 -78 0
-75 78 77 76 0
-76 81 0
-76 82 0
76 -82 -81 0
-77 80 0
-77 82 0
77 -82 -80 0
-78 80 0
-78 81 0
78 -81 -80 0
79 82 -7 0
79 -82 7 0
-79 82 7 0
-79 -82 -7 0
82 -83 0
82 -84 0
82 -85 0
-82 85 84 83 0
-83 88 0
-83 89 0
83 -89 -88 0
-84 87 0
-84 89 0
84 -89 -87 0
-85 87 0
-85 88 0
85 -88 -87 0
86 89 -8 0
86 -89 8 0
-86 89 8 0
-86 -89 -8 0
89 -90 0
89 -91 0
89 -92 0
-89 92 91 90 0
-90 95 0
-90 96 0
90 -96 -95 0
-91 94 0
-91 96 0
91 -96 -94 0
-92 94 0
-92 95 0
92 -95 -94 0
93 96 -9 0
93 -96 9 0
-93 96 9 0
-93 -96 -9 0
96 -97 0
96 -98 0
96 -99 0
-96 99 98 97 0
-97 102 0
-97 103 0
97 -103 -102 0
-98 101 0
-98 103 0
98 -103 -101 0
-99 101 0
-99 102 0
99 -102 -101 0
100 103 -10 0
100 -103 10 0
-100 103 10 0
-100 -103 -10 0
103 -104 0
103 -105 0
103 -106 0
-103 106 105 104 0
-104 109 0
-104 110 0
104 -110 -109 0
-105 108 0
-105 110 0
105 -110 -108 0
-106 108 0
-106 109 0
106 -109 -108 0
107 110 -11 0
107 -110 11 0
-107 110 11 0
-107 -110 -11 0
110 -111 0
110 -112 0
110 -113 0
-110 113 112 111 0
-111 116 0
-111 117 0
111 -117 -116 0
-112 115 0
-112 117 0
112 -117 -115 0
-113 115 0
-113 116 0
113 -116 -115 0
114 117 -12 0
114 -117 12 0
-114 117 12 0
-114 -117 -12 0
117 -118 0
117 -119 0
117 -120 0
-117 120 119 118 0
-118 123 0
-118 124 0
118 -124 -123 0
-119 122 0
-119 124 0
119 -124 -122 0
-120 122 0
-120 123 0
120 -123 -122 0
121 124 -13 0
121 -124 13 0
-121 124 13 0
-121 -124 -13 0
124 -125 0
124 -126 0
124 -127 0
-124 127 126 125 0
-125 130 0
-125 131 0
125 -131 -130 0
-126 129 0
-126 131 0
126 -131 -129 0
-127 129 0
-127 130 0
127 -130 -129 0
128 131 -14 0
128 -131 14 0
-128 131 14 0
-128 -131 -14 0
131 -132 0
131 -133 0
131 -134 0
-131 134 133 132 0
-132 137 0
-132 138 0
132 -138 -137 0
-133 136 0
-133 138 0
133 -138 -136 0
-134 136 0
-134 137 0
134 -137 -136 0
135 138 -15 0
135 -138 15 0
-135 138 15 0
-135 -138 -15 0
138 -139 0
138 -140 0
138 -141 0
-138 141 140 139 0
-139 144 0
-139 145 0
139 -145 -144 0
-140 143 0
-140 145 0
140 -145 -143 0
-141 143 0
-141 144 0
141 -144 -143 0
142 145 -16 0
142 -145 16 0
-142 145 16 0
-142 -145 -16 0
145 -146 0
145 -147 0
145 -148 0
-145 148 147 146 0
-146 151 0
-146 152 0
146 -152 -151 0
-147 150 0
-147 152 0
147 -152 -150 0
-148 150 0
-148 151 0
148 -151 -150 0
149 152 -17 0
149 -152 17 0
-149 152 17 0
-149 -152 -17 0
152 -153 0
152 -154 0
152 -155 0
-152 155 154 153 0
-153 158 0
-153 159 0
153 -159 -158 0
-154 157 0
-154 159 0
154 -159 -157 0
-155 157 0
-155 158 0
155 -158 -157 0
156 159 -18 0
156 -159 18 0
-156 159 18 0
-156 -159 -18 0
159 -160 0
159 -161 0
159 -162 0
-159 162 161 160 0
-160 165 0
-160 166 0
160 -166 -165 0
-161 164 0
-161 166 0
161 -166 -164 0
-162 164 0
-162 165 0
162 -165 -164 0
163 166 -19 0
163 -166 19 0
-163 166 19 0
-163 -166 -19 0
166 -167 0
166 -168 0
166 -169 0
-166 169 168 167 0
-167 172 0
-167 173 0
167 -173 -172 0
-168 171 0
-168 173 0
168 -173 -171 0
-169 171 0
-169 172 0
169 -172 -171 0
170 173 -20 0
170 -173 20 0
-170 173 20 0
-170 -173 -20 0
173 -174 0
173 -175 0
173 -176 0
-173 176 175 174 0
-174 179 0
-174 180 0
174 -180 -179 0
-175 178 0
-175 180 0
175 -180 -178 0
-176 178 0
-176 179 0
176 -179 -178 0
177 180 -21 0
177 -180 21 0
-177 180 21 0
-177 -180 -21 0
180 -181 0
180 -182 0
180 -183 0
-180 183 182 181 0
-181 186 0
-181 187 0
181 -187 -186 0
-182 185 0
-182 187 0
182 -187 -185 0
-183 185 0
-183 186 0
183 -186 -185 0
184 187 -22 0
184 -187 22 0
-184 187 22 0
-184 -187 -22 0
187 -188 0
187 -189 0
187 -190 0
-187 190 189 188 0
-188 193 0
-188 194 0
188 -194 -193 0
-189 192 0
-189 194 0
189 -194 -192 0
-190 192 0
-190 193 0
190 -193 -192 0
191 194 -23 0
191 -194 23 0
-191 194 23 0
-191 -194 -23 0
194 -195 0
194 -196 0
194 -197 0
-194 197 196 195 0
-195 200 0
-195 201 0
195 -201 -200 0
-196 199 0
-196 201 0
196 -201 -199 0
-197 199 0
-197 200 0
197 -200 -199 0
198 201 -24 0
198 -201 24 0
-198 201 24 0
-198 -201 -24 0
201 -202 0
201 -203 0
201 -204 0
-201 204 203 202 0
-202 207 0
-202 208 0
202 -208 -207 0
-203 206 0
-203 208 0
203 -208 -206 0
-204 206 0
-204 207 0
204 -207 -206 0
205 208 -25 0
205 -208 25 0
-205 208 25 0
-205 -208 -25 0
208 -209 0
208 -210 0
208 -211 0
-208 211 210 209 0
-209 214 0
-209 215 0
209 -215 -214 0
-210 213 0
-210 215 0
210 -215 -213 0
-211 213 0
-211 214 0
211 -214 -213 0
212 215 -26 0
212 -215 26 0
-212 215 26 0
-212 -215 -26 0
215 -216 0
215 -217 0
215 -218 0
-215 218 217 216 0
-216 221 0
-216 222 0
216 -222 -221 0
-217 220 0
-217 222 0
217 -222 -220 0
-218 220 0
-218 221 0
218 -221 -220 0
219 222 -27 0
219 -222 27 0
-219 222 27 0
-219 -222 -27 0
222 -223 0
222 -224 0
222 -225 0
-222 225 224 223 0
-223 228 0
-223 229 0
223 -229 -228 0
-224 227 0
-224 229 0
224 -229 -227 0
-225 227 0
-225 228 0
225 -228 -227 0
226 229 -28 0
226 -229 28 0
-226 229 28 0
-226 -229 -28 0
229 -230 0
229 -231 0
229 -232 0
-229 232 231 230 0
-230 235 0
-230 236 0
230 -236 -235 0
-231 234 0
-231 236 0
231 -236 -234 0
-232 234 0
-232 235 0
232 -235 -234 0
233 236 -29 0
233 -236 29 0
-233 236 29 0
-233 -236 -29 0
236 -237 0
236 -238 0
236 -239 0
-236 239 238 237 0
-237 242 0
-237 243 0
237 -243 -242 0
-238 241 0
-238 243 0
238 -243 -241 0
-239 241 0
-239 242 0
239 -242 -241 0
240 243 -30 0
240 -243 30 0
-240 243 30 0
-240 -243 -30 0
243 -244 0
243 -245 0
243 -246 0
-243 246 245 244 0
-244 249 0
-244 250 0
244 -250 -249 0
-245 248 0
-245 250 0
245 -250 -248 0
-246 248 0
-246 249 0
246 -249 -248 0
247 250 -31 0
247 -250 31 0
-247 250 31 0
-247 -250 -31 0
250 -251 0
250 -252 0
250 -253 0
-250 253 252 251 0
-251 256 0
-251 257 0
251 -257 -256 0
-252 255 0
-252 257 0
252 -257 -255 0
-253 255 0
-253 256 0
253 -256 -255 0
254 257 -32 0
254 -257 32 0
-254 257 32 0
-254 -257 -32 0